(set-logic HORN)
(declare-fun assign_139_22_5_abs01 (Int Int Int Int Int Int Int) Bool)
(declare-fun assert_130_21_5_abs01 (Int Int Int Int Int Int Int) Bool)
(declare-fun while_142_20_1_abs01 (Int Int Int Int Int Int Int) Bool)
(declare-fun assign_104_19_1_abs01 (Int Int Int Int Int Int Int) Bool)
(declare-fun assign_95_16_5_abs01 (Int Int Int Int Int Int Int) Bool)
(declare-fun assign_86_15_5_abs01 (Int Int Int Int Int Int Int) Bool)
(declare-fun arrayassign_77_14_5_abs01 (Int Int Int Int Int Int Int) Bool)
(declare-fun while_98_13_1_abs01 (Int Int Int Int Int Int Int) Bool)
(declare-fun assign_55_11_1_abs01 (Int Int Int Int Int Int Int) Bool)
(declare-fun assign_43_10_1_abs01 (Int Int Int Int Int Int Int) Bool)
(declare-fun assign_37_9_1_abs01 (Int Int Int Int Int Int Int) Bool)
(declare-fun end_abs01 (Int Int Int Int Int Int Int) Bool)
(declare-fun start_abs01 (Int Int Int Int Int Int Int) Bool)
(assert (forall ((size Int) (j Int) (i Int) (vabs_f_f Int) (vabs_s_f_f Int) (a_copy_select Int) (a_select Int)) (start_abs01 vabs_f_f a_copy_select vabs_s_f_f a_select size j i)))
(assert (forall ((i Int) (j Int) (size Int) (vabs_0_f_f Int) (vabs_0_s_f_f Int) (a_select Int) (a_copy_select Int)) (=> (start_abs01 vabs_0_f_f a_copy_select vabs_0_s_f_f a_select size j i) (assign_37_9_1_abs01 vabs_0_f_f a_copy_select vabs_0_s_f_f a_select size j i))))
(assert (forall ((i Int) (j Int) (size Int) (vabs_0_f_f Int) (vabs_0_s_f_f Int) (a_select Int) (a_copy_select Int)) (=> (assign_37_9_1_abs01 vabs_0_f_f a_copy_select vabs_0_s_f_f a_select size j i) (assign_43_10_1_abs01 vabs_0_f_f a_copy_select vabs_0_s_f_f a_select size j 1))))
(assert (forall ((i Int) (j Int) (size Int) (vabs_0_f_f Int) (vabs_0_s_f_f Int) (a_select Int) (a_copy_select Int)) (=> (assign_43_10_1_abs01 vabs_0_f_f a_copy_select vabs_0_s_f_f a_select size j i) (assign_55_11_1_abs01 vabs_0_f_f a_copy_select vabs_0_s_f_f a_select size 0 i))))
(assert (forall ((rnd Int) (i Int) (j Int) (size Int) (vabs_0_f_f Int) (vabs_0_s_f_f Int) (a_select Int) (a_copy_select Int)) (=> (assign_55_11_1_abs01 vabs_0_f_f a_copy_select vabs_0_s_f_f a_select size j i) (while_98_13_1_abs01 vabs_0_f_f a_copy_select vabs_0_s_f_f a_select rnd j i))))
(assert (forall ((size Int) (j Int) (i Int) (vabs_0_f_f Int) (vabs_0_s_f_f Int) (a_copy_select Int) (a_select Int)) (=> (and (while_98_13_1_abs01 vabs_0_f_f a_copy_select vabs_0_s_f_f a_select size j i) (< i size)) (arrayassign_77_14_5_abs01 vabs_0_f_f a_copy_select vabs_0_s_f_f a_select size j i))))
(assert (forall ((size Int) (j Int) (i Int) (vabs_0_f_f Int) (vabs_0_s_f_f Int) (a_copy_select Int) (a_select Int)) (=> (and (while_98_13_1_abs01 vabs_0_f_f a_copy_select vabs_0_s_f_f a_select size j i) (not (< i size))) (assign_104_19_1_abs01 vabs_0_f_f a_copy_select vabs_0_s_f_f a_select size j i))))
(assert (forall ((i Int) (j Int) (size Int) (vabs_0_f_f Int) (vabs_0_s_f_f Int) (a_select_0 Int) (a_select Int) (a_copy_select Int)) (=> (and (=> (= i vabs_0_s_f_f) (= a_select a_select_0)) (arrayassign_77_14_5_abs01 vabs_0_f_f a_copy_select vabs_0_s_f_f a_select size j i) (arrayassign_77_14_5_abs01 vabs_0_f_f a_copy_select i a_select_0 size j i)) (assign_86_15_5_abs01 vabs_0_f_f (ite (= i vabs_0_f_f) a_select_0 a_copy_select) vabs_0_s_f_f a_select size j i))))
(assert (forall ((i Int) (j Int) (size Int) (vabs_0_f_f Int) (vabs_0_s_f_f Int) (a_select Int) (a_copy_select Int)) (=> (assign_86_15_5_abs01 vabs_0_f_f a_copy_select vabs_0_s_f_f a_select size j i) (assign_95_16_5_abs01 vabs_0_f_f a_copy_select vabs_0_s_f_f a_select size j (+ i 2)))))
(assert (forall ((i Int) (j Int) (size Int) (vabs_0_f_f Int) (vabs_0_s_f_f Int) (a_select Int) (a_copy_select Int)) (=> (assign_95_16_5_abs01 vabs_0_f_f a_copy_select vabs_0_s_f_f a_select size j i) (while_98_13_1_abs01 vabs_0_f_f a_copy_select vabs_0_s_f_f a_select size (+ j 1) i))))
(assert (forall ((i Int) (j Int) (size Int) (vabs_0_f_f Int) (vabs_0_s_f_f Int) (a_select Int) (a_copy_select Int)) (=> (assign_104_19_1_abs01 vabs_0_f_f a_copy_select vabs_0_s_f_f a_select size j i) (while_142_20_1_abs01 vabs_0_f_f a_copy_select vabs_0_s_f_f a_select size j 0))))
(assert (forall ((size Int) (j Int) (i Int) (vabs_0_f_f Int) (vabs_0_s_f_f Int) (a_copy_select Int) (a_select Int)) (=> (and (while_142_20_1_abs01 vabs_0_f_f a_copy_select vabs_0_s_f_f a_select size j i) (< i size)) (assert_130_21_5_abs01 vabs_0_f_f a_copy_select vabs_0_s_f_f a_select size j i))))
(assert (forall ((size Int) (j Int) (i Int) (vabs_0_f_f Int) (vabs_0_s_f_f Int) (a_copy_select Int) (a_select Int)) (=> (and (while_142_20_1_abs01 vabs_0_f_f a_copy_select vabs_0_s_f_f a_select size j i) (not (< i size))) (end_abs01 vabs_0_f_f a_copy_select vabs_0_s_f_f a_select size j i))))
(assert (forall ((i Int) (j Int) (size Int) (a_select Int) (a_copy_select Int)) (=> (assert_130_21_5_abs01 i a_copy_select j a_select size j i) (= a_copy_select a_select))))
(assert (forall ((i Int) (j Int) (size Int) (vabs_0_f_f Int) (vabs_0_s_f_f Int) (a_select Int) (a_copy_select Int)) (=> (assert_130_21_5_abs01 vabs_0_f_f a_copy_select vabs_0_s_f_f a_select size j i) (assign_139_22_5_abs01 vabs_0_f_f a_copy_select vabs_0_s_f_f a_select size j i))))
(assert (forall ((i Int) (j Int) (size Int) (vabs_0_f_f Int) (vabs_0_s_f_f Int) (a_select Int) (a_copy_select Int)) (=> (assign_139_22_5_abs01 vabs_0_f_f a_copy_select vabs_0_s_f_f a_select size j i) (while_142_20_1_abs01 vabs_0_f_f a_copy_select vabs_0_s_f_f a_select size j (+ i 1)))))
(check-sat)